50
    1   336   274
    2   631   571
    3   112    61
    4   571   658
    5   539   535
    6   696   792
    7   655   560
    8   314   370
    9   539   584
   10   927   889
   11     1     6
   12   423   466
   13  1017   919
   14   205   139
   15   305   383
   16     1    27
   17   904   896
   18   989   911
   19   564   628
   20   850   933
   21   168   176
   22   273   254
   23   180   279
   24   529   589
   25   433   407
   26    71   127
   27   888   933
   28   180   126
   29   542   624
   30   493   462
   31   642   596
   32   959   970
   33   351   382
   34   481   516
   35   973   895
   36   702   760
   37   507   423
   38    64    35
   39   170   223
   40   590   517
   41   308   258
   42   928   888
   43   441   489
   44    93    20
   45   932   898
   46   422   345
   47   966   876
   48   824   776
   49   961   938
   50   687   663
13023
